(set-logic ALL)
(set-option :produce-models true)
(declare-sort BoundSet 0)
(declare-sort UnboundSet 0)
(declare-fun Woman (BoundSet) Bool)
(declare-fun Sits (BoundSet BoundSet) Bool)
(declare-fun Park (BoundSet) Bool)
(declare-fun Person (BoundSet) Bool)
(declare-fun In (BoundSet BoundSet) Bool)
(assert (not (=> (and (exists ((x BoundSet)) (exists ((y BoundSet)) (and (Woman x) (and (Sits x y) (Park y))))) (forall ((x BoundSet)) (=> (Woman x) (Person x)))) (exists ((z BoundSet)) (exists ((y BoundSet)) (and (Person z) (and (Park y) (In z y))))))))
(check-sat)
(get-model)